50 8
753 133
414 370
451 212
714 567
653 270
128 849
864 545
992 698
152 840
609 283
227 71
489 377
246 65
540 205
395 441
689 676
393 407
885 584
710 517
827 653
332 329
797 244
600 474
929 499
302 843
707 424
133 730
662 431
817 681
781 252
837 522
715 160
363 685
396 694
857 191
419 325
737 101
860 562
356 912
385 944
280 273
581 263
488 509
889 638
460 421
886 135
884 122
447 669
423 326
738 226
